NAME: rand_1/map4_180
TYPE: TSP
COMMENT: autogenerated using a wonderful map creator
DIMENSION: 210
EDGE_WEIGHT_TYPE: EUC_2D
NODE_COORD_SECTION
1 38.0 4.0
2 62.0 30.0
3 63.0 28.0
4 34.0 62.0
5 44.0 1.0
6 35.0 4.0
7 35.0 62.0
8 39.0 63.0
9 1.0 15.0
10 62.0 19.0
11 62.0 25.0
12 62.0 27.0
13 42.0 62.0
14 2.0 16.0
15 2.0 12.0
16 36.0 62.0
17 1.0 10.0
18 33.0 2.0
19 36.0 3.0
20 61.0 21.0
21 62.0 17.0
22 63.0 17.0
23 42.0 63.0
24 41.0 2.0
25 63.0 29.0
26 62.0 11.0
27 63.0 22.0
28 39.0 2.0
29 40.0 3.0
30 37.0 63.0
31 61.0 20.0
32 36.0 63.0
33 41.0 62.0
34 38.0 63.0
35 42.0 3.0
36 42.0 1.0
37 61.0 19.0
38 1.0 12.0
39 63.0 25.0
40 42.0 4.0
41 43.0 61.0
42 35.0 63.0
43 46.0 61.0
44 1.0 20.0
45 61.0 25.0
46 62.0 15.0
47 38.0 2.0
48 61.0 22.0
49 45.0 63.0
50 38.0 1.0
51 43.0 2.0
52 63.0 16.0
53 62.0 20.0
54 44.0 63.0
55 61.0 13.0
56 43.0 62.0
57 35.0 2.0
58 2.0 14.0
59 38.0 61.0
60 35.0 61.0
61 21.0 16.0
62 1.0 31.0
63 32.0 46.0
64 19.0 46.0
65 44.0 45.0
66 61.0 6.0
67 8.0 55.0
68 11.0 51.0
69 48.0 8.0
70 63.0 61.0
71 23.0 52.0
72 59.0 39.0
73 15.0 14.0
74 55.0 4.0
75 54.0 6.0
76 18.0 19.0
77 52.0 51.0
78 10.0 54.0
79 1.0 51.0
80 5.0 12.0
81 11.0 62.0
82 37.0 26.0
83 29.0 43.0
84 32.0 5.0
85 12.0 45.0
86 20.0 58.0
87 6.0 4.0
88 32.0 32.0
89 16.0 15.0
90 39.0 10.0
91 24.0 37.0
92 27.0 54.0
93 25.0 36.0
94 30.0 50.0
95 7.0 30.0
96 25.0 54.0
97 37.0 19.0
98 40.0 45.0
99 51.0 20.0
100 55.0 36.0
101 12.0 56.0
102 54.0 1.0
103 22.0 60.0
104 14.0 1.0
105 14.0 28.0
106 20.0 44.0
107 16.0 1.0
108 53.0 50.0
109 34.0 46.0
110 25.0 22.0
111 53.0 13.0
112 49.0 34.0
113 29.0 31.0
114 40.0 31.0
115 51.0 15.0
116 26.0 50.0
117 15.0 59.0
118 26.0 59.0
119 32.0 20.0
120 6.0 1.0
121 53.0 52.0
122 57.0 22.0
123 30.0 47.0
124 3.0 60.0
125 39.0 25.0
126 19.0 56.0
127 22.0 18.0
128 22.0 27.0
129 44.0 58.0
130 6.0 49.0
131 4.0 31.0
132 59.0 31.0
133 36.0 29.0
134 6.0 58.0
135 33.0 12.0
136 42.0 24.0
137 16.0 5.0
138 34.0 50.0
139 36.0 47.0
140 17.0 43.0
141 11.0 36.0
142 19.0 49.0
143 51.0 47.0
144 39.0 27.0
145 21.0 13.0
146 46.0 42.0
147 24.0 39.0
148 26.0 36.0
149 61.0 3.0
150 14.0 16.0
151 29.0 35.0
152 51.0 1.0
153 53.0 29.0
154 18.0 41.0
155 42.0 8.0
156 25.0 56.0
157 6.0 51.0
158 45.0 34.0
159 15.0 63.0
160 56.0 34.0
161 18.0 59.0
162 16.0 7.0
163 46.0 8.0
164 17.0 36.0
165 56.0 52.0
166 63.0 3.0
167 10.0 39.0
168 21.0 15.0
169 29.0 28.0
170 9.0 59.0
171 43.0 54.0
172 35.0 50.0
173 7.0 43.0
174 47.0 24.0
175 41.0 20.0
176 14.0 39.0
177 48.0 16.0
178 28.0 47.0
179 5.0 45.0
180 2.0 37.0
181 43.0 38.0
182 20.0 18.0
183 15.0 22.0
184 35.0 34.0
185 52.0 50.0
186 18.0 27.0
187 52.0 59.0
188 16.0 39.0
189 8.0 1.0
190 41.0 13.0
191 28.0 13.0
192 19.0 10.0
193 62.0 45.0
194 53.0 42.0
195 59.0 28.0
196 57.0 3.0
197 46.0 12.0
198 29.0 60.0
199 60.0 47.0
200 6.0 30.0
201 44.0 48.0
202 1.0 43.0
203 4.0 21.0
204 36.0 19.0
205 54.0 34.0
206 34.0 31.0
207 56.0 31.0
208 1.0 6.0
209 25.0 62.0
210 17.0 24.0
211 37.0 27.0
212 34.0 40.0
213 54.0 43.0
214 11.0 8.0
215 17.0 33.0
216 34.0 49.0
217 19.0 30.0
218 13.0 20.0
219 49.0 19.0
220 52.0 45.0
221 39.0 56.0
222 38.0 58.0
223 54.0 54.0
224 41.0 29.0
225 20.0 61.0
226 49.0 12.0
227 52.0 29.0
228 26.0 28.0
229 33.0 43.0
230 35.0 40.0
231 10.0 41.0
232 19.0 62.0
233 7.0 42.0
234 42.0 9.0
235 1.0 1.0
236 5.0 35.0
237 4.0 37.0
238 49.0 5.0
239 20.0 63.0
240 58.0 47.0
START_DEPOT_SECTION
1
2
3
4
5
6
7
8
9
10
11
12
13
14
15
16
17
18
19
20
21
22
23
24
25
26
27
28
29
30
-1
END_DEPOT_SECTION
31
32
33
34
35
36
37
38
39
40
41
42
43
44
45
46
47
48
49
50
51
52
53
54
55
56
57
58
59
60
-1
EOF
